c nIsolatedPIs 8
c maxPI 24
p cnf 72 145
c gate 25 -8 -20 0
-8 -25 0
-20 -25 0
8 20 25 0
c gate 26 2 14 0
2 -26 0
14 -26 0
-2 -14 26 0
c gate 27 1 13 0
1 -27 0
13 -27 0
-1 -13 27 0
c gate 28 -26 -27 0
-26 -28 0
-27 -28 0
26 27 28 0
c gate 29 -2 -14 0
-2 -29 0
-14 -29 0
2 14 29 0
c gate 30 -3 -15 0
-3 -30 0
-15 -30 0
3 15 30 0
c gate 31 -29 -30 0
-29 -31 0
-30 -31 0
29 30 31 0
c gate 32 -28 31 0
-28 -32 0
31 -32 0
28 -31 32 0
c gate 33 4 16 0
4 -33 0
16 -33 0
-4 -16 33 0
c gate 34 3 15 0
3 -34 0
15 -34 0
-3 -15 34 0
c gate 35 -33 -34 0
-33 -35 0
-34 -35 0
33 34 35 0
c gate 36 -32 35 0
-32 -36 0
35 -36 0
32 -35 36 0
c gate 37 6 18 0
6 -37 0
18 -37 0
-6 -18 37 0
c gate 38 5 17 0
5 -38 0
17 -38 0
-5 -17 38 0
c gate 39 -37 -38 0
-37 -39 0
-38 -39 0
37 38 39 0
c gate 40 -5 -17 0
-5 -40 0
-17 -40 0
5 17 40 0
c gate 41 -4 -16 0
-4 -41 0
-16 -41 0
4 16 41 0
c gate 42 -40 -41 0
-40 -42 0
-41 -42 0
40 41 42 0
c gate 43 39 42 0
39 -43 0
42 -43 0
-39 -42 43 0
c gate 44 7 19 0
7 -44 0
19 -44 0
-7 -19 44 0
c gate 45 8 20 0
8 -45 0
20 -45 0
-8 -20 45 0
c gate 46 -44 -45 0
-44 -46 0
-45 -46 0
44 45 46 0
c gate 47 -6 -18 0
-6 -47 0
-18 -47 0
6 18 47 0
c gate 48 -7 -19 0
-7 -48 0
-19 -48 0
7 19 48 0
c gate 49 -47 -48 0
-47 -49 0
-48 -49 0
47 48 49 0
c gate 50 46 49 0
46 -50 0
49 -50 0
-46 -49 50 0
c gate 51 43 50 0
43 -51 0
50 -51 0
-43 -50 51 0
c gate 52 -36 51 0
-36 -52 0
51 -52 0
36 -51 52 0
c gate 53 -39 49 0
-39 -53 0
49 -53 0
39 -49 53 0
c gate 54 46 -53 0
46 -54 0
-53 -54 0
-46 53 54 0
c gate 55 -10 -22 0
-10 -55 0
-22 -55 0
10 22 55 0
c gate 56 10 22 0
10 -56 0
22 -56 0
-10 -22 56 0
c gate 57 -55 -56 0
-55 -57 0
-56 -57 0
55 56 57 0
c gate 58 -12 -24 0
-12 -58 0
-24 -58 0
12 24 58 0
c gate 59 12 24 0
12 -59 0
24 -59 0
-12 -24 59 0
c gate 60 -58 -59 0
-58 -60 0
-59 -60 0
58 59 60 0
c gate 61 57 60 0
57 -61 0
60 -61 0
-57 -60 61 0
c gate 62 11 -23 0
11 -62 0
-23 -62 0
-11 23 62 0
c gate 63 -11 23 0
-11 -63 0
23 -63 0
11 -23 63 0
c gate 64 -62 -63 0
-62 -64 0
-63 -64 0
62 63 64 0
c gate 65 -9 -21 0
-9 -65 0
-21 -65 0
9 21 65 0
c gate 66 9 21 0
9 -66 0
21 -66 0
-9 -21 66 0
c gate 67 -65 -66 0
-65 -67 0
-66 -67 0
65 66 67 0
c gate 68 -64 67 0
-64 -68 0
67 -68 0
64 -67 68 0
c gate 69 61 68 0
61 -69 0
68 -69 0
-61 -68 69 0
c gate 70 -54 69 0
-54 -70 0
69 -70 0
54 -69 70 0
c gate 71 -52 -70 0
-52 -71 0
-70 -71 0
52 70 71 0
c gate 72 -25 -71 0
-25 -72 0
-71 -72 0
25 71 72 0
c PO
72 0
